
Gurobi 8.1.1 (win64, Python) logging started 01/08/20 23:11:09

Academic license - for non-commercial use only
Changed value of parameter TimeLimit to 60.0
   Prev: 1e+100  Min: 0.0  Max: 1e+100  Default: 1e+100
Optimize a model with 3792 rows, 14253 columns and 314440 nonzeros
Variable types: 483 continuous, 13770 integer (13770 binary)
Coefficient statistics:
  Matrix range     [3e-01, 5e+00]
  Objective range  [3e+01, 1e+02]
  Bounds range     [1e+00, 1e+00]
  RHS range        [1e+00, 3e+01]
Found heuristic solution: objective 682030.00000
Presolve removed 1228 rows and 3384 columns
Presolve time: 0.33s
Presolved: 2564 rows, 10869 columns, 118159 nonzeros
Variable types: 357 continuous, 10512 integer (10385 binary)

Root relaxation: objective 1.301059e+04, 15100 iterations, 1.10 seconds

    Nodes    |    Current Node    |     Objective Bounds      |     Work
 Expl Unexpl |  Obj  Depth IntInf | Incumbent    BestBd   Gap | It/Node Time

     0     0 13010.5882    0  518 682030.000 13010.5882  98.1%     -    2s
H    0     0                    150960.00000 13010.5882  91.4%     -    2s
H    0     0                    20760.000000 13010.5882  37.3%     -    2s
H    0     0                    17540.000000 13010.5882  25.8%     -    2s
H    0     0                    17330.000000 13010.5882  24.9%     -    2s
H    0     0                    17120.000000 13010.5882  24.0%     -    2s
H    0     0                    16350.000000 13010.5882  20.4%     -    3s
     0     0 13021.3382    0 1349 16350.0000 13021.3382  20.4%     -    3s
H    0     0                    16140.000000 13021.3382  19.3%     -    3s
H    0     0                    16130.000000 13021.3382  19.3%     -    4s
     0     0 13054.2815    0 1214 16130.0000 13054.2815  19.1%     -    4s
H    0     0                    16085.000000 13054.2815  18.8%     -    4s
     0     0 13067.9168    0 1136 16085.0000 13067.9168  18.8%     -    4s
     0     0 13067.9168    0 1026 16085.0000 13067.9168  18.8%     -    4s
H    0     0                    16040.000000 13067.9168  18.5%     -    6s
H    0     0                    15995.000000 13067.9168  18.3%     -    6s
H    0     0                    15965.000000 13067.9168  18.1%     -    6s
     0     0 13109.3132    0 1473 15965.0000 13109.3132  17.9%     -    6s
H    0     0                    15875.000000 13109.3132  17.4%     -    7s
H    0     0                    15785.000000 13109.3132  17.0%     -    7s
     0     0 13204.4536    0 1381 15785.0000 13204.4536  16.3%     -    7s
H    0     0                    15710.000000 13204.4536  15.9%     -    8s
H    0     0                    15695.000000 13204.4536  15.9%     -    8s
     0     0 13238.4863    0 1365 15695.0000 13238.4863  15.7%     -    8s
H    0     0                    15575.000000 13238.4863  15.0%     -    8s
     0     0 13238.4863    0 1279 15575.0000 13238.4863  15.0%     -    8s
H    0     0                    15455.000000 13238.4863  14.3%     -   10s
H    0     0                    15335.000000 13238.4863  13.7%     -   10s
H    0     0                    15080.000000 13238.4863  12.2%     -   10s
H    0     0                    15020.000000 13238.4863  11.9%     -   10s
     0     0 13310.0882    0 1561 15020.0000 13310.0882  11.4%     -   10s
H    0     0                    15004.999994 13310.0882  11.3%     -   11s
H    0     0                    14960.000000 13310.0882  11.0%     -   11s
H    0     0                    14900.000000 13310.0882  10.7%     -   11s
H    0     0                    14870.000000 13310.0882  10.5%     -   11s
     0     0 13368.5882    0 1504 14870.0000 13368.5882  10.1%     -   11s
     0     0 13373.5882    0 1487 14870.0000 13373.5882  10.1%     -   12s
     0     0 13373.5882    0 1488 14870.0000 13373.5882  10.1%     -   13s
H    0     0                    14869.999996 13373.5882  10.1%     -   15s
H    0     0                    14839.999993 13373.5882  9.88%     -   15s
H    0     0                    14810.000000 13373.5882  9.70%     -   15s
H    0     0                    14780.000000 13373.5882  9.52%     -   15s
     0     0 13379.9729    0 1728 14780.0000 13379.9729  9.47%     -   15s
     0     0 13409.3235    0 1751 14780.0000 13409.3235  9.27%     -   18s
     0     0 13409.6985    0 1683 14780.0000 13409.6985  9.27%     -   20s
     0     0 13410.4485    0 1690 14780.0000 13410.4485  9.27%     -   21s
     0     0 13410.4485    0 1683 14780.0000 13410.4485  9.27%     -   23s
H    0     0                    14719.999976 13410.4485  8.90%     -   26s
     0     0 13412.6360    0 1779 14720.0000 13412.6360  8.88%     -   26s
     0     0 13499.4485    0 1712 14720.0000 13499.4485  8.29%     -   29s
     0     0 13524.0485    0 1698 14720.0000 13524.0485  8.12%     -   31s
     0     0 13563.5943    0 1675 14720.0000 13563.5943  7.86%     -   32s
     0     0 13563.6608    0 1620 14720.0000 13563.6608  7.86%     -   33s
     0     0 13563.7122    0 1767 14720.0000 13563.7122  7.86%     -   35s
     0     0 13577.3235    0 1723 14720.0000 13577.3235  7.76%     -   38s
     0     0 13601.3235    0 1693 14720.0000 13601.3235  7.60%     -   40s
     0     0 13601.3235    0 1671 14720.0000 13601.3235  7.60%     -   41s
     0     0 13623.8235    0 1694 14720.0000 13623.8235  7.45%     -   43s
     0     0 13650.8235    0 1626 14720.0000 13650.8235  7.26%     -   44s
H    0     0                    14690.000000 13650.8235  7.07%     -   45s
     0     0 13650.8235    0 1670 14690.0000 13650.8235  7.07%     -   45s
     0     0 13673.3235    0 1657 14690.0000 13673.3235  6.92%     -   47s
H    0     0                    14660.000000 13673.3235  6.73%     -   49s
     0     0 13673.3235    0 1679 14660.0000 13673.3235  6.73%     -   51s
     0     0 13674.4485    0 1700 14660.0000 13674.4485  6.72%     -   52s
     0     0 13674.4485    0  991 14660.0000 13674.4485  6.72%     -   60s

Cutting planes:
  Gomory: 2
  Cover: 458
  Clique: 1044
  MIR: 37
  StrongCG: 3
  GUB cover: 77
  Zero half: 63

Explored 1 nodes (160143 simplex iterations) in 60.01 seconds
Thread count was 8 (of 8 available processors)

Solution count 10: 14660 14690 14720 ... 14960

Time limit reached
Best objective 1.466000000000e+04, best bound 1.367444852941e+04, gap 6.7227%
